&CONTROL
  calculation = 'vc-relax'
  etot_conv_thr =   1.0000000000d-04
  forc_conv_thr =   1.0000000000d-03
  outdir = './out/'
  prefix = 'sb2te3'
  pseudo_dir = '~/pseudo/'
  verbosity = 'high'
/
&SYSTEM
  degauss =   1.4699723600d-02
  ecutrho =   400
  ecutwfc =   40
  ibrav = 0 !A =    4.30392
  nat = 60
  ntyp = 2
  occupations = 'smearing'
  smearing = 'cold'
/
&ELECTRONS
  conv_thr =   1.0000000000d-06
  electron_maxstep = 200
  mixing_beta =   0.4
/
&ions
  ion_dynamics='bfgs'
/
&cell
  cell_dynamics='bfgs',
  press=0.0,
  press_conv_thr=0.5,
/
ATOMIC_SPECIES
  Te  127.60000  te_pbe_v1.uspp.F.UPF
  Sb  121.76000  sb_pbe_v1.4.uspp.F.UPF

K_POINTS AUTOMATIC
2 2 2 1 1 1

CELL_PARAMETERS angstrom
8.60783594000000 0.00000000000000 0.00000000000000
-4.30391797000000 7.45460459564870 0.00000000000000
0.00000000000000 0.00000000000000 31.77741530000000

ATOMIC_POSITIONS angstrom
Te 2.1519589850 1.2424340993 3.6823522674 
Te 4.3039179700 4.9697363971 3.6823522674 
Te 6.4558769550 1.2424340993 3.6823522674 
Te 0.0000000000 4.9697363971 3.6823522674 
Te 0.0000000000 0.0000000000 6.9101193934 
Te 2.1519589850 3.7273022978 6.9101193934 
Te 4.3039179700 0.0000000000 6.9101193934 
Te -2.1519589850 3.7273022978 6.9101193934 
Te 0.0000000000 0.0000000000 0.0000000000 
Te 2.1519589850 3.7273022978 0.0000000000 
Te 4.3039179700 0.0000000000 0.0000000000 
Te -2.1519589850 3.7273022978 0.0000000000 
Te 0.0000000000 2.4848681985 14.2748242459 
Te 2.1519589850 6.2121704964 14.2748242459 
Te 4.3039179700 2.4848681985 14.2748242459 
Te -2.1519589850 6.2121704964 14.2748242459 
Te 2.1519589850 1.2424340993 17.5025910541 
Te 4.3039179700 4.9697363971 17.5025910541 
Te 6.4558769550 1.2424340993 17.5025910541 
Te 0.0000000000 4.9697363971 17.5025910541 
Te 2.1519589850 1.2424340993 10.5924717667 
Te 4.3039179700 4.9697363971 10.5924717667 
Te 6.4558769550 1.2424340993 10.5924717667 
Te 0.0000000000 4.9697363971 10.5924717667 
Te 0.0000000000 0.0000000000 24.8672959066 
Te 2.1519589850 3.7273022978 24.8672959066 
Te 4.3039179700 0.0000000000 24.8672959066 
Te -2.1519589850 3.7273022978 24.8672959066 
Te 0.0000000000 2.4848681985 28.0950630326 
Te 2.1519589850 6.2121704964 28.0950630326 
Te 4.3039179700 2.4848681985 28.0950630326 
Te -2.1519589850 6.2121704964 28.0950630326 
Te 0.0000000000 2.4848681985 21.1849435333 
Te 2.1519589850 6.2121704964 21.1849435333 
Te 4.3039179700 2.4848681985 21.1849435333 
Te -2.1519589850 6.2121704964 21.1849435333 
Sb 0.0000000000 2.4848681985 8.6075306870 
Sb 2.1519589850 6.2121704964 8.6075306870 
Sb 4.3039179700 2.4848681985 8.6075306870 
Sb -2.1519589850 6.2121704964 8.6075306870 
Sb 0.0000000000 2.4848681985 1.9849412916 
Sb 2.1519589850 6.2121704964 1.9849412916 
Sb 4.3039179700 2.4848681985 1.9849412916 
Sb -2.1519589850 6.2121704964 1.9849412916 
Sb 0.0000000000 0.0000000000 19.2000023477 
Sb 2.1519589850 3.7273022978 19.2000023477 
Sb 4.3039179700 0.0000000000 19.2000023477 
Sb 6.4558769550 3.7273022978 19.2000023477 
Sb 0.0000000000 0.0000000000 12.5774129523 
Sb 2.1519589850 3.7273022978 12.5774129523 
Sb 4.3039179700 0.0000000000 12.5774129523 
Sb -2.1519589850 3.7273022978 12.5774129523 
Sb 2.1519589850 1.2424340993 29.7924740084 
Sb 4.3039179700 4.9697363971 29.7924740084 
Sb 6.4558769550 1.2424340993 29.7924740084 
Sb 0.0000000000 4.9697363971 29.7924740084 
Sb 2.1519589850 1.2424340993 23.1698846130 
Sb 4.3039179700 4.9697363971 23.1698846130 
Sb 6.4558769550 1.2424340993 23.1698846130 
Sb 0.0000000000 4.9697363971 23.1698846130 

